g3 1 1 0	# problem hs057
 2 1 1 0 0	# vars, constraints, objectives, ranges, eqns
 1 1	# nonlinear constraints, objectives
 0 0	# network constraints: nonlinear, linear
 2 2 2	# nonlinear vars in constraints, objectives, both
 0 0 0 1	# linear network variables; functions; arith, flags
 0 0 0 0 0	# discrete variables: binary, integer, nonlinear (b,c,o)
 2 2	# nonzeros in Jacobian, gradients
 0 0	# max name lengths: constraints, variables
 0 0 0 0 0	# common exprs: b,c,o,c1,o1
b
2 0.4
2 -4
x2
0 0.42
1 5
r
2 0.09
C0
o16
o2
v0
v1
O0 0
o54
44
o5
o1
o1
n0.49
v0
o1
n0.49
v0
n2
o5
o1
o1
n0.49
v0
o1
n0.49
v0
n2
o5
o1
o1
n0.48
v0
o2
o1
n0.49
v0
o44
o16
o2
n2
v1
n2
o5
o1
o1
n0.47
v0
o2
o1
n0.49
v0
o44
o16
o2
n2
v1
n2
o5
o1
o1
n0.48
v0
o2
o1
n0.49
v0
o44
o16
o2
n2
v1
n2
o5
o1
o1
n0.47
v0
o2
o1
n0.49
v0
o44
o16
o2
n2
v1
n2
o5
o1
o1
n0.46
v0
o2
o1
n0.49
v0
o44
o16
o2
n4
v1
n2
o5
o1
o1
n0.46
v0
o2
o1
n0.49
v0
o44
o16
o2
n4
v1
n2
o5
o1
o1
n0.45
v0
o2
o1
n0.49
v0
o44
o16
o2
n4
v1
n2
o5
o1
o1
n0.43
v0
o2
o1
n0.49
v0
o44
o16
o2
n4
v1
n2
o5
o1
o1
n0.45
v0
o2
o1
n0.49
v0
o44
o16
o2
n6
v1
n2
o5
o1
o1
n0.43
v0
o2
o1
n0.49
v0
o44
o16
o2
n6
v1
n2
o5
o1
o1
n0.43
v0
o2
o1
n0.49
v0
o44
o16
o2
n6
v1
n2
o5
o1
o1
n0.44
v0
o2
o1
n0.49
v0
o44
o16
o2
n8
v1
n2
o5
o1
o1
n0.43
v0
o2
o1
n0.49
v0
o44
o16
o2
n8
v1
n2
o5
o1
o1
n0.43
v0
o2
o1
n0.49
v0
o44
o16
o2
n8
v1
n2
o5
o1
o1
n0.46
v0
o2
o1
n0.49
v0
o44
o16
o2
n10
v1
n2
o5
o1
o1
n0.45
v0
o2
o1
n0.49
v0
o44
o16
o2
n10
v1
n2
o5
o1
o1
n0.42
v0
o2
o1
n0.49
v0
o44
o16
o2
n12
v1
n2
o5
o1
o1
n0.42
v0
o2
o1
n0.49
v0
o44
o16
o2
n12
v1
n2
o5
o1
o1
n0.43
v0
o2
o1
n0.49
v0
o44
o16
o2
n12
v1
n2
o5
o1
o1
n0.41
v0
o2
o1
n0.49
v0
o44
o16
o2
n14
v1
n2
o5
o1
o1
n0.41
v0
o2
o1
n0.49
v0
o44
o16
o2
n14
v1
n2
o5
o1
o1
n0.4
v0
o2
o1
n0.49
v0
o44
o16
o2
n14
v1
n2
o5
o1
o1
n0.42
v0
o2
o1
n0.49
v0
o44
o16
o2
n16
v1
n2
o5
o1
o1
n0.4
v0
o2
o1
n0.49
v0
o44
o16
o2
n16
v1
n2
o5
o1
o1
n0.4
v0
o2
o1
n0.49
v0
o44
o16
o2
n16
v1
n2
o5
o1
o1
n0.41
v0
o2
o1
n0.49
v0
o44
o16
o2
n18
v1
n2
o5
o1
o1
n0.4
v0
o2
o1
n0.49
v0
o44
o16
o2
n18
v1
n2
o5
o1
o1
n0.41
v0
o2
o1
n0.49
v0
o44
o16
o2
n18
v1
n2
o5
o1
o1
n0.41
v0
o2
o1
n0.49
v0
o44
o16
o2
n20
v1
n2
o5
o1
o1
n0.4
v0
o2
o1
n0.49
v0
o44
o16
o2
n20
v1
n2
o5
o1
o1
n0.4
v0
o2
o1
n0.49
v0
o44
o16
o2
n22
v1
n2
o5
o1
o1
n0.4
v0
o2
o1
n0.49
v0
o44
o16
o2
n22
v1
n2
o5
o1
o1
n0.38
v0
o2
o1
n0.49
v0
o44
o16
o2
n22
v1
n2
o5
o1
o1
n0.41
v0
o2
o1
n0.49
v0
o44
o16
o2
n24
v1
n2
o5
o1
o1
n0.4
v0
o2
o1
n0.49
v0
o44
o16
o2
n24
v1
n2
o5
o1
o1
n0.4
v0
o2
o1
n0.49
v0
o44
o16
o2
n26
v1
n2
o5
o1
o1
n0.41
v0
o2
o1
n0.49
v0
o44
o16
o2
n28
v1
n2
o5
o1
o1
n0.38
v0
o2
o1
n0.49
v0
o44
o16
o2
n28
v1
n2
o5
o1
o1
n0.4
v0
o2
o1
n0.49
v0
o44
o16
o2
n30
v1
n2
o5
o1
o1
n0.4
v0
o2
o1
n0.49
v0
o44
o16
o2
n30
v1
n2
o5
o1
o1
n0.39
v0
o2
o1
n0.49
v0
o44
o16
o2
n32
v1
n2
o5
o1
o1
n0.39
v0
o2
o1
n0.49
v0
o44
o16
o2
n34
v1
n2
k1
1
J0 2
0 0
1 0.49
G0 2
0 0
1 0
